0
Node Left Objective IInf Best_Integer Best_Bound ItCnt Gap
0+ 0 nan nan 136.4723 0.0000 nan 100.00%
0+ 0 nan nan 106.7571 0.0000 nan 100.00%
0 0 41.7256 16 106.7571 41.7256 150 60.92%
0+ 0 nan nan 56.9575 41.7256 nan 26.74%
0 0 43.8219 18 56.9575 Disjcuts:10 172 23.06%
0 0 44.1958 26 56.9575 Disjcuts:19 205 22.41%
0 0 44.5443 31 56.9575 Disjcuts:22 238 21.79%
0 0 45.1579 31 56.9575 Disjcuts:14 255 20.72%
0 0 45.2569 33 56.9575 Disjcuts:7 270 20.54%
0 0 45.2743 32 56.9575 Disjcuts:1 278 20.51%
0+ 0 nan nan 54.9422 45.2743 nan 17.60%
0 2 45.2928 31 54.9422 45.3019 278 17.55%
CPXPARAM_MIP_Cuts_Disjunctive 24
1
Node Left Objective IInf Best_Integer Best_Bound ItCnt Gap
0+ 0 nan nan 136.4723 0.0000 nan 100.00%
0+ 0 nan nan 109.7136 0.0000 nan 100.00%
0 0 0.0000 30 109.7136 0.0000 92 100.00%
0+ 0 nan nan 35.6502 0.0000 nan 100.00%
0 0 0.0000 28 35.6502 Disjcuts:1 93 100.00%
0+ 0 nan nan 27.8468 0.0000 nan 100.00%
0 0 0.0000 30 27.8468 Disjcuts:25 121 100.00%
0 0 0.0000 27 27.8468 Disjcuts:10 136 100.00%
0 0 0.0000 30 27.8468 Disjcuts:20 195 100.00%
0+ 0 nan nan 14.0514 0.0000 nan 100.00%
0+ 0 nan nan 12.8818 0.0000 nan 100.00%
0+ 0 nan nan 11.3262 0.0000 nan 100.00%
0 2 0.0000 27 11.3262 0.0000 195 100.00%
CPXPARAM_MIP_Cuts_Disjunctive 4
2
Node Left Objective IInf Best_Integer Best_Bound ItCnt Gap
0+ 0 nan nan 136.4723 0.0000 nan 100.00%
0+ 0 nan nan 74.9311 0.0000 nan 100.00%
0 0 29.9311 18 74.9311 29.9311 133 60.06%
0+ 0 nan nan 66.3953 29.9311 nan 54.92%
0 0 29.9311 15 66.3953 Disjcuts:6 148 54.92%
0+ 0 nan nan 56.1695 29.9311 nan 46.71%
0 0 31.2292 26 56.1695 Disjcuts:15 180 44.40%
0 0 32.5737 25 56.1695 Disjcuts:19 207 42.01%
0 0 33.3613 27 56.1695 Disjcuts:8 229 40.61%
0 0 33.7843 29 56.1695 Disjcuts:8 264 39.85%
0+ 0 nan nan 49.9569 33.7843 nan 32.37%
0 0 33.8520 27 49.9569 Disjcuts:1 274 32.24%
0 0 34.0177 26 49.9569 Disjcuts:4 287 31.91%
0 0 34.1742 27 49.9569 Disjcuts:1 299 31.59%
0+ 0 nan nan 49.9569 34.1742 nan 31.59%
0+ 0 nan nan 40.6803 34.1742 nan 15.99%
0 2 36.1145 8 40.6803 36.1903 299 11.04%
CPXPARAM_MIP_Cuts_Disjunctive 20
3
Node Left Objective IInf Best_Integer Best_Bound ItCnt Gap
0+ 0 nan nan 136.4723 0.0000 nan 100.00%
0+ 0 nan nan 84.2825 0.0000 nan 100.00%
0 0 0.0000 24 84.2825 0.0000 88 100.00%
0+ 0 nan nan 19.0770 0.0000 nan 100.00%
0 0 0.0000 27 19.0770 Disjcuts:22 146 100.00%
0+ 0 nan nan 16.6895 0.0000 nan 100.00%
0 0 0.0000 18 16.6895 Disjcuts:1 158 100.00%
0+ 0 nan nan 8.8317 0.0000 nan 100.00%
0 0 0.0000 20 8.8317 Disjcuts:16 200 100.00%
0+ 0 nan nan 6.9454 0.0000 nan 100.00%
0 2 0.0000 20 6.9454 0.0000 200 100.00%
CPXPARAM_MIP_Cuts_Disjunctive 5
4
Node Left Objective IInf Best_Integer Best_Bound ItCnt Gap
0+ 0 nan nan 115.1924 0.0000 nan 100.00%
0+ 0 nan nan 108.1598 0.0000 nan 100.00%
0+ 0 nan nan 98.2525 0.0000 nan 100.00%
0 0 47.1290 16 98.2525 47.1290 129 52.03%
0+ 0 nan nan 56.1818 47.1290 nan 16.11%
0 0 47.7217 13 56.1818 Disjcuts:6 139 15.06%
0 0 48.4737 21 56.1818 Disjcuts:8 166 13.72%
0 0 48.6999 22 56.1818 Disjcuts:12 191 13.32%
0 0 49.1361 25 56.1818 Disjcuts:14 218 12.54%
0 0 49.4275 30 56.1818 Disjcuts:17 249 12.02%
0+ 0 nan nan 54.5576 49.4275 nan 9.40%
0+ 0 nan nan 54.5576 49.4275 nan 9.40%
0+ 0 nan nan 54.5576 49.4275 nan 9.40%
0 2 49.9611 16 54.5576 50.1042 249 8.16%
CPXPARAM_MIP_Cuts_Disjunctive 21
5
Node Left Objective IInf Best_Integer Best_Bound ItCnt Gap
0+ 0 nan nan 115.1924 0.0000 nan 100.00%
0+ 0 nan nan 108.1598 0.0000 nan 100.00%
0 0 0.0000 29 108.1598 0.0000 91 100.00%
0+ 0 nan nan 50.1713 0.0000 nan 100.00%
0 0 0.0000 24 50.1713 Disjcuts:2 108 100.00%
0+ 0 nan nan 21.7861 0.0000 nan 100.00%
0 0 0.0000 29 21.7861 Disjcuts:21 165 100.00%
0+ 0 nan nan 21.3111 0.0000 nan 100.00%
0+ 0 nan nan 19.7703 0.0000 nan 100.00%
0 2 0.0000 23 19.7703 0.0000 165 100.00%
CPXPARAM_MIP_Cuts_Disjunctive 3
6
Node Left Objective IInf Best_Integer Best_Bound ItCnt Gap
0+ 0 nan nan 115.1924 0.0000 nan 100.00%
0+ 0 nan nan 83.4808 0.0000 nan 100.00%
0 0 43.9374 9 83.4808 43.9374 117 47.37%
0+ 0 nan nan 50.7613 43.9374 nan 13.44%
0 0 43.9465 24 50.7613 Disjcuts:8 149 13.43%
0 0 44.4692 25 50.7613 Disjcuts:15 172 12.40%
0 0 45.0855 27 50.7613 Disjcuts:12 199 11.18%
0 0 45.6471 26 50.7613 Disjcuts:10 228 10.08%
0 0 45.7063 24 50.7613 Disjcuts:6 248 9.96%
0 0 45.7285 27 50.7613 Disjcuts:2 259 9.91%
0 0 45.7409 24 50.7613 Disjcuts:1 265 9.89%
0 0 45.7414 24 50.7613 Disjcuts:1 266 9.89%
0 2 45.9290 11 50.7613 45.9905 266 9.40%
CPXPARAM_MIP_Cuts_Disjunctive 17
7
Node Left Objective IInf Best_Integer Best_Bound ItCnt Gap
0+ 0 nan nan 115.1924 0.0000 nan 100.00%
0+ 0 nan nan 87.9605 0.0000 nan 100.00%
0 0 0.0000 25 87.9605 0.0000 90 100.00%
0+ 0 nan nan 28.3687 0.0000 nan 100.00%
0 0 0.0000 23 28.3687 Disjcuts:9 116 100.00%
0+ 0 nan nan 13.1158 0.0000 nan 100.00%
0 0 0.0000 28 13.1158 Disjcuts:15 157 100.00%
0+ 0 nan nan 10.1740 0.0000 nan 100.00%
0 0 0.0000 21 10.1740 Disjcuts:1 167 100.00%
0 0 0.0000 26 10.1740 Disjcuts:20 221 100.00%
0 2 0.0000 20 10.1740 0.0000 221 100.00%
CPXPARAM_MIP_Cuts_Disjunctive 3
8
Node Left Objective IInf Best_Integer Best_Bound ItCnt Gap
0+ 0 nan nan 131.6037 0.0000 nan 100.00%
0+ 0 nan nan 114.7061 0.0000 nan 100.00%
0+ 0 nan nan 109.8445 0.0000 nan 100.00%
0 0 58.1018 15 109.8445 58.1018 140 47.11%
0+ 0 nan nan 81.1413 58.1018 nan 28.39%
0 0 58.8244 22 81.1413 Disjcuts:13 160 27.50%
0+ 0 nan nan 76.7492 58.8244 nan 23.36%
0 0 58.9336 24 76.7492 Disjcuts:15 179 23.21%
0 0 58.9524 27 76.7492 Disjcuts:8 193 23.19%
0 0 58.9978 26 76.7492 Disjcuts:12 199 23.13%
0 0 59.0327 27 76.7492 Disjcuts:5 207 23.08%
0 0 59.0467 27 76.7492 Disjcuts:3 211 23.07%
0+ 0 nan nan 69.8693 59.0467 nan 15.49%
0 2 59.0579 22 69.8693 59.1018 211 15.41%
CPXPARAM_MIP_Cuts_Disjunctive 23
9
Node Left Objective IInf Best_Integer Best_Bound ItCnt Gap
0+ 0 nan nan 131.6037 0.0000 nan 100.00%
0+ 0 nan nan 115.2596 0.0000 nan 100.00%
0 0 0.0000 30 115.2596 0.0000 90 100.00%
0+ 0 nan nan 32.4537 0.0000 nan 100.00%
0 0 0.0000 30 32.4537 Disjcuts:13 103 100.00%
0 0 0.0000 30 32.4537 Disjcuts:29 163 100.00%
0+ 0 nan nan 24.3395 0.0000 nan 100.00%
0 2 0.0000 29 24.3395 0.0000 163 100.00%
CPXPARAM_MIP_Cuts_Disjunctive 2
10
Node Left Objective IInf Best_Integer Best_Bound ItCnt Gap
0+ 0 nan nan 131.6037 0.0000 nan 100.00%
0+ 0 nan nan 101.5820 0.0000 nan 100.00%
0 0 41.3973 11 101.5820 41.3973 130 59.25%
0+ 0 nan nan 85.5775 41.3973 nan 51.63%
0 0 41.3973 13 85.5775 Disjcuts:6 142 51.63%
0 0 41.7343 19 85.5775 Disjcuts:10 163 51.23%
0+ 0 nan nan 85.5509 41.7343 nan 51.22%
0 0 42.6035 24 85.5509 Disjcuts:11 177 50.20%
0 0 44.1504 26 85.5509 Disjcuts:10 197 48.39%
0 0 45.0142 27 85.5509 Disjcuts:8 238 47.38%
0+ 0 nan nan 84.0057 45.0142 nan 46.42%
0 0 45.2707 28 84.0057 Disjcuts:4 251 46.11%
0 0 45.2881 27 84.0057 Disjcuts:1 262 46.09%
0+ 0 nan nan 62.2489 45.2881 nan 27.25%
0+ 0 nan nan 61.7370 45.2881 nan 26.64%
0 2 45.2881 27 61.7370 45.2974 262 26.63%
CPXPARAM_MIP_Cuts_Disjunctive 23
11
Node Left Objective IInf Best_Integer Best_Bound ItCnt Gap
0+ 0 nan nan 131.6037 0.0000 nan 100.00%
0+ 0 nan nan 110.1690 0.0000 nan 100.00%
0 0 0.0000 26 110.1690 0.0000 82 100.00%
0+ 0 nan nan 60.2130 0.0000 nan 100.00%
0 0 0.0000 24 60.2130 Disjcuts:3 88 100.00%
0+ 0 nan nan 36.1073 0.0000 nan 100.00%
0 0 0.0000 25 36.1073 Disjcuts:19 136 100.00%
0 0 0.0000 24 36.1073 Disjcuts:2 158 100.00%
0+ 0 nan nan 25.4690 0.0000 nan 100.00%
0+ 0 nan nan 24.3076 0.0000 nan 100.00%
0+ 0 nan nan 19.2105 0.0000 nan 100.00%
0 2 0.0000 24 19.2105 0.0000 158 100.00%
CPXPARAM_MIP_Cuts_Disjunctive 3
12
Node Left Objective IInf Best_Integer Best_Bound ItCnt Gap
0+ 0 nan nan 110.3567 0.0000 nan 100.00%
0+ 0 nan nan 99.5973 0.0000 nan 100.00%
0 0 42.3231 15 99.5973 42.3231 151 57.51%
0+ 0 nan nan 55.9495 42.3231 nan 24.35%
0 0 43.5586 22 55.9495 Disjcuts:14 176 22.15%
0 0 44.2365 27 55.9495 Disjcuts:17 207 20.93%
0 0 45.0404 29 55.9495 Disjcuts:20 234 19.50%
0 0 45.8006 33 55.9495 Disjcuts:14 256 18.14%
0 0 46.0636 32 55.9495 Disjcuts:9 273 17.67%
0 0 46.1015 31 55.9495 Disjcuts:1 280 17.60%
0 0 46.1635 32 55.9495 Disjcuts:2 289 17.49%
0 0 46.1694 32 55.9495 Disjcuts:1 295 17.48%
0 0 46.1801 32 55.9495 Disjcuts:2 297 17.46%
0 2 46.3728 29 55.9495 46.4180 297 17.04%
CPXPARAM_MIP_Cuts_Disjunctive 23
13
Node Left Objective IInf Best_Integer Best_Bound ItCnt Gap
0+ 0 nan nan 110.3567 0.0000 nan 100.00%
0+ 0 nan nan 99.8555 0.0000 nan 100.00%
0 0 0.0000 26 99.8555 0.0000 87 100.00%
0+ 0 nan nan 36.0783 0.0000 nan 100.00%
0 0 0.0000 28 36.0783 Disjcuts:25 131 100.00%
0 0 0.0000 23 36.0783 Disjcuts:2 145 100.00%
0+ 0 nan nan 22.5827 0.0000 nan 100.00%
0 0 0.0000 28 22.5827 Disjcuts:23 205 100.00%
0+ 0 nan nan 22.3181 0.0000 nan 100.00%
0+ 0 nan nan 18.5680 0.0000 nan 100.00%
0 2 0.0000 25 18.5680 0.0000 205 100.00%
CPXPARAM_MIP_Cuts_Disjunctive 3
14
Node Left Objective IInf Best_Integer Best_Bound ItCnt Gap
0+ 0 nan nan 110.3567 0.0000 nan 100.00%
0+ 0 nan nan 83.1075 0.0000 nan 100.00%
0 0 32.4848 16 83.1075 32.4848 121 60.91%
0+ 0 nan nan 57.6461 32.4848 nan 43.65%
0 0 32.5726 13 57.6461 Disjcuts:2 128 43.50%
0+ 0 nan nan 47.5373 32.5726 nan 31.48%
0 0 32.6931 21 47.5373 Disjcuts:11 155 31.23%
0 0 32.8510 27 47.5373 Disjcuts:17 182 30.89%
0 0 33.4797 29 47.5373 Disjcuts:7 210 29.57%
0 0 34.7356 26 47.5373 Disjcuts:10 235 26.93%
0 2 34.7903 22 47.5373 34.8951 235 26.59%
CPXPARAM_MIP_Cuts_Disjunctive 17
15
Node Left Objective IInf Best_Integer Best_Bound ItCnt Gap
0+ 0 nan nan 110.3567 0.0000 nan 100.00%
0+ 0 nan nan 94.4733 0.0000 nan 100.00%
0 0 0.0000 24 94.4733 0.0000 83 100.00%
0+ 0 nan nan 35.3044 0.0000 nan 100.00%
0 0 0.0000 15 35.3044 Disjcuts:1 87 100.00%
0+ 0 nan nan 16.7215 0.0000 nan 100.00%
0 0 0.0000 21 16.7215 Disjcuts:13 140 100.00%
0 0 0.0000 21 16.7215 Disjcuts:15 168 100.00%
0+ 0 nan nan 16.0173 0.0000 nan 100.00%
0+ 0 nan nan 13.9186 0.0000 nan 100.00%
0 2 0.0000 21 13.9186 0.0000 168 100.00%
CPXPARAM_MIP_Cuts_Disjunctive 6
16
Node Left Objective IInf Best_Integer Best_Bound ItCnt Gap
0+ 0 nan nan 109.2984 0.0000 nan 100.00%
0+ 0 nan nan 98.2414 0.0000 nan 100.00%
0 0 47.2432 17 98.2414 47.2432 152 51.91%
0+ 0 nan nan 88.2522 47.2432 nan 46.47%
0 0 47.5493 22 88.2522 Disjcuts:7 170 46.12%
0+ 0 nan nan 84.7984 47.5493 nan 43.93%
0 0 47.7405 28 84.7984 Disjcuts:18 199 43.70%
0 0 48.1741 30 84.7984 Disjcuts:25 234 43.19%
0+ 0 nan nan 81.3861 48.1741 nan 40.81%
0 0 48.7035 30 81.3861 Disjcuts:14 250 40.16%
0 0 49.4172 30 81.3861 Disjcuts:12 266 39.28%
0+ 0 nan nan 79.5308 49.4172 nan 37.86%
0 0 49.4287 32 79.5308 Disjcuts:1 270 37.85%
0 0 49.5089 30 79.5308 Disjcuts:3 276 37.75%
0+ 0 nan nan 62.0704 49.5089 nan 20.24%
0 2 49.5089 30 62.0704 49.5555 276 20.16%
CPXPARAM_MIP_Cuts_Disjunctive 21
17
Node Left Objective IInf Best_Integer Best_Bound ItCnt Gap
0+ 0 nan nan 109.2984 0.0000 nan 100.00%
0+ 0 nan nan 98.8898 0.0000 nan 100.00%
0 0 0.0000 28 98.8898 0.0000 89 100.00%
0+ 0 nan nan 29.7958 0.0000 nan 100.00%
0 0 0.0000 31 29.7958 Disjcuts:26 154 100.00%
0 0 1.5058 33 29.7958 Disjcuts:25 240 94.95%
0 0 2.7064 32 29.7958 Disjcuts:23 272 90.92%
0+ 0 nan nan 27.4115 2.7064 nan 90.13%
0 0 3.2625 34 27.4115 Disjcuts:22 310 88.10%
0 0 4.0942 34 27.4115 Disjcuts:15 354 85.06%
0 0 4.1208 34 27.4115 Disjcuts:2 359 84.97%
0 0 4.1346 35 27.4115 Disjcuts:1 365 84.92%
0 0 4.1561 35 27.4115 Disjcuts:1 372 84.84%
0 0 4.1588 35 27.4115 Disjcuts:1 373 84.83%
0+ 0 nan nan 25.1801 4.1588 nan 83.48%
0+ 0 nan nan 24.1013 4.1588 nan 82.74%
0 2 4.1588 35 24.1013 4.2294 373 82.45%
CPXPARAM_MIP_Cuts_Disjunctive 17
18
Node Left Objective IInf Best_Integer Best_Bound ItCnt Gap
0+ 0 nan nan 109.2984 0.0000 nan 100.00%
0+ 0 nan nan 89.2500 0.0000 nan 100.00%
0 0 50.2018 12 89.2500 50.2018 126 43.75%
0+ 0 nan nan 65.9464 50.2018 nan 23.87%
0 0 50.2018 9 65.9464 Disjcuts:2 132 23.87%
0 0 50.2018 13 65.9464 Disjcuts:7 149 23.87%
0 0 50.6879 23 65.9464 Disjcuts:15 172 23.14%
0 0 51.0169 21 65.9464 Disjcuts:8 184 22.64%
0 0 51.1964 22 65.9464 Disjcuts:5 193 22.37%
0 0 51.2113 22 65.9464 Disjcuts:1 194 22.34%
0 0 51.3366 22 65.9464 Disjcuts:2 197 22.15%
0 0 51.6753 21 65.9464 Disjcuts:2 202 21.64%
0+ 0 nan nan 60.3798 51.6753 nan 14.42%
0 2 52.1573 13 60.3798 52.2135 202 13.52%
CPXPARAM_MIP_Cuts_Disjunctive 19
19
Node Left Objective IInf Best_Integer Best_Bound ItCnt Gap
0+ 0 nan nan 109.2984 0.0000 nan 100.00%
0+ 0 nan nan 95.6739 0.0000 nan 100.00%
0 0 0.0000 26 95.6739 0.0000 87 100.00%
0+ 0 nan nan 34.5842 0.0000 nan 100.00%
0 0 0.0000 26 34.5842 Disjcuts:26 122 100.00%
0 0 0.0000 29 34.5842 Disjcuts:18 158 100.00%
0+ 0 nan nan 29.5194 0.0000 nan 100.00%
0+ 0 nan nan 19.9779 0.0000 nan 100.00%
0+ 0 nan nan 19.6596 0.0000 nan 100.00%
0 2 0.0000 24 19.6596 0.0000 158 100.00%
CPXPARAM_MIP_Cuts_Disjunctive 3
20
Node Left Objective IInf Best_Integer Best_Bound ItCnt Gap
0+ 0 nan nan 93.3792 0.0000 nan 100.00%
0+ 0 nan nan 84.7371 0.0000 nan 100.00%
0 0 27.9048 17 84.7371 27.9048 138 67.07%
0+ 0 nan nan 34.8222 27.9048 nan 19.87%
0 0 28.4363 15 34.8222 Disjcuts:13 164 18.34%
0 0 29.1499 17 34.8222 Disjcuts:9 189 16.29%
0 0 29.3390 26 34.8222 Disjcuts:14 222 15.75%
0 0 29.5729 24 34.8222 Disjcuts:13 259 15.07%
0 0 29.6249 25 34.8222 Disjcuts:5 280 14.93%
0 0 29.6289 26 34.8222 Disjcuts:3 283 14.91%
0 0 29.6417 27 34.8222 Disjcuts:4 287 14.88%
0 2 29.7204 11 34.8222 29.7304 287 14.62%
CPXPARAM_MIP_Cuts_Disjunctive 20
21
Node Left Objective IInf Best_Integer Best_Bound ItCnt Gap
0+ 0 nan nan 93.3792 0.0000 nan 100.00%
0+ 0 nan nan 84.7371 0.0000 nan 100.00%
0 0 0.0000 29 84.7371 0.0000 97 100.00%
0+ 0 nan nan 39.5455 0.0000 nan 100.00%
0 0 0.0000 25 39.5455 Disjcuts:8 116 100.00%
0+ 0 nan nan 21.4570 0.0000 nan 100.00%
0 0 0.0000 25 21.4570 Disjcuts:21 148 100.00%
0+ 0 nan nan 14.4615 0.0000 nan 100.00%
0+ 0 nan nan 14.3606 0.0000 nan 100.00%
0+ 0 nan nan 13.9457 0.0000 nan 100.00%
0 2 0.0000 22 13.9457 0.0000 148 100.00%
CPXPARAM_MIP_Cuts_Disjunctive 1
22
Node Left Objective IInf Best_Integer Best_Bound ItCnt Gap
0+ 0 nan nan 93.3792 0.0000 nan 100.00%
0+ 0 nan nan 79.8100 0.0000 nan 100.00%
0 0 25.8187 13 79.8100 25.8187 129 67.65%
0+ 0 nan nan 31.0782 25.8187 nan 16.92%
0 0 26.1037 19 31.0782 Disjcuts:8 159 16.01%
0 0 26.5914 16 31.0782 Disjcuts:6 184 14.44%
0+ 0 nan nan 29.3928 26.5914 nan 9.53%
0 0 26.7925 21 29.3928 Disjcuts:6 199 8.85%
0+ 0 nan nan 28.5540 26.7925 nan 6.17%
0 0 27.3927 18 28.5540 Disjcuts:4 229 4.07%
0 0 27.6393 11 28.5540 Disjcuts:1 240 3.20%
0 2 27.7599 8 28.5540 27.7788 240 2.71%
CPXPARAM_MIP_Cuts_Disjunctive 6
23
Node Left Objective IInf Best_Integer Best_Bound ItCnt Gap
0+ 0 nan nan 93.3792 0.0000 nan 100.00%
0+ 0 nan nan 79.4789 0.0000 nan 100.00%
0 0 0.0000 24 79.4789 0.0000 85 100.00%
0+ 0 nan nan 12.1073 0.0000 nan 100.00%
0 0 0.0000 20 12.1073 Disjcuts:1 92 100.00%
0+ 0 nan nan 11.8985 0.0000 nan 100.00%
0 0 0.0000 25 11.8985 Disjcuts:17 138 100.00%
0+ 0 nan nan 7.9441 0.0000 nan 100.00%
0 0 0.0000 19 7.9441 Disjcuts:3 147 100.00%
0 0 0.0000 21 7.9441 Disjcuts:15 180 100.00%
0 2 0.0000 18 7.9441 0.0000 180 100.00%
CPXPARAM_MIP_Cuts_Disjunctive 3
24
Node Left Objective IInf Best_Integer Best_Bound ItCnt Gap
0+ 0 nan nan 94.5045 0.0000 nan 100.00%
0+ 0 nan nan 83.7373 0.0000 nan 100.00%
0 0 30.0098 21 83.7373 30.0098 137 64.16%
0+ 0 nan nan 42.1069 30.0098 nan 28.73%
0 0 31.0963 18 42.1069 Disjcuts:13 163 26.15%
0 0 31.9603 31 42.1069 Disjcuts:14 206 24.10%
0 0 32.2601 30 42.1069 Disjcuts:10 229 23.39%
0 0 32.5418 32 42.1069 Disjcuts:8 252 22.72%
0 0 32.7258 28 42.1069 Disjcuts:11 287 22.28%
0 0 32.7273 29 42.1069 Disjcuts:3 288 22.28%
0 2 32.9198 22 42.1069 32.9318 288 21.79%
CPXPARAM_MIP_Cuts_Disjunctive 17
25
Node Left Objective IInf Best_Integer Best_Bound ItCnt Gap
0+ 0 nan nan 94.5045 0.0000 nan 100.00%
0+ 0 nan nan 83.7373 0.0000 nan 100.00%
0 0 0.0000 27 83.7373 0.0000 93 100.00%
0+ 0 nan nan 26.7172 0.0000 nan 100.00%
0 0 0.0000 21 26.7172 Disjcuts:1 94 100.00%
0+ 0 nan nan 17.3722 0.0000 nan 100.00%
0 0 0.0000 25 17.3722 Disjcuts:19 150 100.00%
0+ 0 nan nan 16.6173 0.0000 nan 100.00%
0+ 0 nan nan 14.4839 0.0000 nan 100.00%
0 2 0.0000 24 14.4839 0.0000 150 100.00%
CPXPARAM_MIP_Cuts_Disjunctive 0
26
Node Left Objective IInf Best_Integer Best_Bound ItCnt Gap
0+ 0 nan nan 94.5045 0.0000 nan 100.00%
0+ 0 nan nan 81.5690 0.0000 nan 100.00%
0 0 30.5909 7 81.5690 30.5909 124 62.50%
0+ 0 nan nan 37.1692 30.5909 nan 17.70%
0 0 30.5909 15 37.1692 Disjcuts:6 142 17.70%
0 0 31.4785 22 37.1692 Disjcuts:11 169 15.31%
0 0 32.1964 22 37.1692 Disjcuts:11 180 13.38%
0 0 33.4167 22 37.1692 Disjcuts:6 208 10.10%
0 0 33.7861 24 37.1692 Disjcuts:10 235 9.10%
0+ 0 nan nan 36.9351 33.7861 nan 8.53%
0 2 34.4816 9 36.9351 34.5103 235 6.56%
CPXPARAM_MIP_Cuts_Disjunctive 15
27
Node Left Objective IInf Best_Integer Best_Bound ItCnt Gap
0+ 0 nan nan 94.5045 0.0000 nan 100.00%
0+ 0 nan nan 84.3474 0.0000 nan 100.00%
0 0 0.0000 24 84.3474 0.0000 84 100.00%
0+ 0 nan nan 19.2212 0.0000 nan 100.00%
0 0 0.0000 19 19.2212 Disjcuts:10 93 100.00%
0+ 0 nan nan 10.1332 0.0000 nan 100.00%
0 0 0.0000 23 10.1332 Disjcuts:17 152 100.00%
0+ 0 nan nan 9.2817 0.0000 nan 100.00%
0 0 0.0000 21 9.2817 Disjcuts:4 169 100.00%
0+ 0 nan nan 7.0693 0.0000 nan 100.00%
0+ 0 nan nan 6.9483 0.0000 nan 100.00%
0 2 0.0000 15 6.9483 0.0000 169 100.00%
CPXPARAM_MIP_Cuts_Disjunctive 2
28
Node Left Objective IInf Best_Integer Best_Bound ItCnt Gap
0+ 0 nan nan 133.7092 0.0000 nan 100.00%
0+ 0 nan nan 130.0630 0.0000 nan 100.00%
0+ 0 nan nan 108.6480 0.0000 nan 100.00%
0 0 63.9057 16 108.6480 63.9057 141 41.18%
0+ 0 nan nan 82.7575 63.9057 nan 22.78%
0 0 64.5150 27 82.7575 Disjcuts:11 172 22.04%
0 0 65.0764 26 82.7575 Disjcuts:18 205 21.36%
0+ 0 nan nan 82.3798 65.0764 nan 21.00%
0 0 65.8794 27 82.3798 Disjcuts:13 239 20.03%
0 0 66.3003 25 82.3798 Disjcuts:11 259 19.52%
0 0 66.6964 27 82.3798 Disjcuts:5 280 19.04%
0+ 0 nan nan 77.5459 66.6964 nan 13.99%
0 2 67.1182 21 77.5459 67.1740 280 13.38%
CPXPARAM_MIP_Cuts_Disjunctive 18
29
Node Left Objective IInf Best_Integer Best_Bound ItCnt Gap
0+ 0 nan nan 133.7092 0.0000 nan 100.00%
0+ 0 nan nan 129.6212 0.0000 nan 100.00%
0+ 0 nan nan 74.5282 0.0000 nan 100.00%
0 0 0.0000 27 74.5282 0.0000 117 100.00%
0+ 0 nan nan 18.1579 0.0000 nan 100.00%
0 0 1.1238 33 18.1579 Disjcuts:22 220 93.81%
0 0 2.3860 32 18.1579 Disjcuts:26 258 86.86%
0 0 3.0299 30 18.1579 Disjcuts:19 293 83.31%
0 0 3.7121 34 18.1579 Disjcuts:19 319 79.56%
0+ 0 nan nan 17.6277 3.7121 nan 78.94%
0 0 4.3135 32 17.6277 Disjcuts:19 353 75.53%
0 0 4.3959 32 17.6277 Disjcuts:2 363 75.06%
0 0 4.4702 34 17.6277 Disjcuts:2 374 74.64%
0+ 0 nan nan 16.1240 4.4702 nan 72.28%
0+ 0 nan nan 16.1240 4.4702 nan 72.28%
0 2 4.4702 34 16.1240 4.5056 374 72.06%
CPXPARAM_MIP_Cuts_Disjunctive 15
30
Node Left Objective IInf Best_Integer Best_Bound ItCnt Gap
0+ 0 nan nan 133.7092 0.0000 nan 100.00%
0+ 0 nan nan 117.3461 0.0000 nan 100.00%
0 0 64.7235 6 117.3461 64.7235 116 44.84%
0+ 0 nan nan 74.6673 64.7235 nan 13.32%
0 0 64.7235 5 74.6673 Disjcuts:2 120 13.32%
0 0 64.7235 12 74.6673 Disjcuts:5 136 13.32%
0+ 0 nan nan 71.4049 64.7235 nan 9.36%
0 0 65.0260 19 71.4049 Disjcuts:2 167 8.93%
0 0 66.0038 22 71.4049 Disjcuts:15 189 7.56%
0 0 66.8968 23 71.4049 Disjcuts:17 222 6.31%
0 0 66.9151 23 71.4049 Disjcuts:1 224 6.29%
0+ 0 nan nan 69.6844 66.9151 nan 3.97%
0 2 67.8061 10 69.6844 68.2042 224 2.12%
CPXPARAM_MIP_Cuts_Disjunctive 17
31
Node Left Objective IInf Best_Integer Best_Bound ItCnt Gap
0+ 0 nan nan 133.7092 0.0000 nan 100.00%
0+ 0 nan nan 116.1408 0.0000 nan 100.00%
0 0 0.0000 26 116.1408 0.0000 89 100.00%
0+ 0 nan nan 18.5661 0.0000 nan 100.00%
0 0 0.0000 28 18.5661 Disjcuts:21 149 100.00%
0 0 0.0000 26 18.5661 Disjcuts:22 180 100.00%
0+ 0 nan nan 11.1157 0.0000 nan 100.00%
0 0 0.0346 31 11.1157 Disjcuts:17 258 99.69%
0 0 0.9400 30 11.1157 Disjcuts:19 322 91.54%
0 0 1.3682 28 11.1157 Disjcuts:13 356 87.69%
0+ 0 nan nan 8.0784 1.3682 nan 83.06%
0 2 1.4471 27 8.0784 1.4598 356 81.93%
CPXPARAM_MIP_Cuts_Disjunctive 13
32
Node Left Objective IInf Best_Integer Best_Bound ItCnt Gap
0+ 0 nan nan 110.7059 0.0000 nan 100.00%
0+ 0 nan nan 95.8126 0.0000 nan 100.00%
0+ 0 nan nan 89.9070 0.0000 nan 100.00%
0 0 40.8280 15 89.9070 40.8280 140 54.59%
0+ 0 nan nan 52.9281 40.8280 nan 22.86%
0 0 42.2074 15 52.9281 Disjcuts:7 161 20.26%
0+ 0 nan nan 52.3535 42.2074 nan 19.38%
0 0 42.4022 20 52.3535 Disjcuts:11 181 19.01%
0 0 42.6522 27 52.3535 Disjcuts:12 210 18.53%
0 0 42.8205 24 52.3535 Disjcuts:8 224 18.21%
0 0 42.9136 29 52.3535 Disjcuts:6 244 18.03%
0 0 42.9457 28 52.3535 Disjcuts:5 256 17.97%
0+ 0 nan nan 49.9518 42.9457 nan 14.03%
0 2 42.9780 21 49.9518 42.9902 256 13.94%
CPXPARAM_MIP_Cuts_Disjunctive 19
33
Node Left Objective IInf Best_Integer Best_Bound ItCnt Gap
0+ 0 nan nan 110.7059 0.0000 nan 100.00%
0+ 0 nan nan 95.5094 0.0000 nan 100.00%
0 0 0.0000 26 95.5094 0.0000 93 100.00%
0+ 0 nan nan 34.1998 0.0000 nan 100.00%
0 0 0.0000 29 34.1998 Disjcuts:23 146 100.00%
0 0 0.0000 27 34.1998 Disjcuts:5 151 100.00%
0+ 0 nan nan 30.5542 0.0000 nan 100.00%
0 0 0.0000 27 30.5542 Disjcuts:17 188 100.00%
0+ 0 nan nan 20.7676 0.0000 nan 100.00%
0 2 0.0000 23 20.7676 0.0000 188 100.00%
CPXPARAM_MIP_Cuts_Disjunctive 2
34
Node Left Objective IInf Best_Integer Best_Bound ItCnt Gap
0+ 0 nan nan 110.7059 0.0000 nan 100.00%
0+ 0 nan nan 77.5207 0.0000 nan 100.00%
0 0 30.3783 14 77.5207 30.3783 127 60.81%
0+ 0 nan nan 55.3937 30.3783 nan 45.16%
0 0 30.6233 26 55.3937 Disjcuts:8 157 44.72%
0+ 0 nan nan 54.0369 30.6233 nan 43.33%
0 0 33.0030 26 54.0369 Disjcuts:24 177 38.93%
0 0 34.4443 24 54.0369 Disjcuts:13 216 36.26%
0 0 34.7513 22 54.0369 Disjcuts:10 235 35.69%
0+ 0 nan nan 48.3296 34.7513 nan 28.10%
0 0 35.4066 27 48.3296 Disjcuts:11 264 26.74%
0 0 35.4332 26 48.3296 Disjcuts:2 274 26.68%
0 0 35.4604 25 48.3296 Disjcuts:2 281 26.63%
0+ 0 nan nan 42.1170 35.4604 nan 15.81%
0 2 36.1729 18 42.1170 36.2891 281 13.84%
CPXPARAM_MIP_Cuts_Disjunctive 21
35
Node Left Objective IInf Best_Integer Best_Bound ItCnt Gap
0+ 0 nan nan 110.7059 0.0000 nan 100.00%
0+ 0 nan nan 92.0846 0.0000 nan 100.00%
0 0 0.0000 24 92.0846 0.0000 86 100.00%
0+ 0 nan nan 14.7394 0.0000 nan 100.00%
0 0 0.0000 23 14.7394 Disjcuts:8 116 100.00%
0 0 0.0000 26 14.7394 Disjcuts:21 153 100.00%
0 0 0.0000 26 14.7394 Disjcuts:6 163 100.00%
0+ 0 nan nan 13.1647 0.0000 nan 100.00%
0+ 0 nan nan 13.1369 0.0000 nan 100.00%
0+ 0 nan nan 11.0957 0.0000 nan 100.00%
0 2 0.0000 26 11.0957 0.0000 163 100.00%
CPXPARAM_MIP_Cuts_Disjunctive 7
36
Node Left Objective IInf Best_Integer Best_Bound ItCnt Gap
0+ 0 nan nan 123.7135 0.0000 nan 100.00%
0+ 0 nan nan 109.1977 0.0000 nan 100.00%
0+ 0 nan nan 99.0366 0.0000 nan 100.00%
0 0 34.8231 16 99.0366 34.8231 140 64.84%
0+ 0 nan nan 61.2031 34.8231 nan 43.10%
0 0 35.8956 26 61.2031 Disjcuts:13 180 41.35%
0+ 0 nan nan 55.4184 35.8956 nan 35.23%
0 0 37.1276 30 55.4184 Disjcuts:21 215 33.00%
0 0 39.3116 29 55.4184 Disjcuts:16 250 29.06%
0 0 39.9182 30 55.4184 Disjcuts:11 264 27.97%
0 0 40.3032 32 55.4184 Disjcuts:7 285 27.27%
0 0 40.3791 32 55.4184 Disjcuts:2 292 27.14%
0 0 40.3836 32 55.4184 Disjcuts:2 298 27.13%
0 2 40.3836 32 55.4184 40.5859 298 26.76%
CPXPARAM_MIP_Cuts_Disjunctive 21
37
Node Left Objective IInf Best_Integer Best_Bound ItCnt Gap
0+ 0 nan nan 123.7135 0.0000 nan 100.00%
0+ 0 nan nan 109.7704 0.0000 nan 100.00%
0 0 0.0000 29 109.7704 0.0000 88 100.00%
0+ 0 nan nan 44.1875 0.0000 nan 100.00%
0 0 0.0000 24 44.1875 Disjcuts:4 92 100.00%
0+ 0 nan nan 20.0257 0.0000 nan 100.00%
0 0 0.0000 26 20.0257 Disjcuts:21 133 100.00%
0 0 0.0000 23 20.0257 Disjcuts:3 137 100.00%
0 0 0.0000 26 20.0257 Disjcuts:21 192 100.00%
0+ 0 nan nan 15.7556 0.0000 nan 100.00%
0 2 0.0000 20 15.7556 0.0000 192 100.00%
CPXPARAM_MIP_Cuts_Disjunctive 0
38
Node Left Objective IInf Best_Integer Best_Bound ItCnt Gap
0+ 0 nan nan 123.7135 0.0000 nan 100.00%
0+ 0 nan nan 95.3556 0.0000 nan 100.00%
0 0 42.9033 7 95.3556 42.9033 120 55.01%
0+ 0 nan nan 51.1711 42.9033 nan 16.16%
0 0 42.9033 11 51.1711 Disjcuts:7 136 16.16%
0+ 0 nan nan 50.3068 42.9033 nan 14.72%
0 0 43.1684 24 50.3068 Disjcuts:8 161 14.19%
0 0 43.6688 21 50.3068 Disjcuts:7 177 13.19%
0 0 44.0842 27 50.3068 Disjcuts:6 194 12.37%
0 0 44.3262 23 50.3068 Disjcuts:15 232 11.89%
0 0 44.3483 24 50.3068 Disjcuts:2 238 11.84%
0+ 0 nan nan 50.2127 44.3483 nan 11.68%
0+ 0 nan nan 48.7008 44.3483 nan 8.94%
0 2 44.7252 7 48.7008 44.7276 238 8.16%
CPXPARAM_MIP_Cuts_Disjunctive 19
39
Node Left Objective IInf Best_Integer Best_Bound ItCnt Gap
0+ 0 nan nan 123.7135 0.0000 nan 100.00%
0+ 0 nan nan 90.9010 0.0000 nan 100.00%
0 0 0.0000 25 90.9010 0.0000 82 100.00%
0+ 0 nan nan 44.8044 0.0000 nan 100.00%
0 0 0.0000 22 44.8044 Disjcuts:13 128 100.00%
0+ 0 nan nan 17.9388 0.0000 nan 100.00%
0 0 0.0000 26 17.9388 Disjcuts:19 174 100.00%
0+ 0 nan nan 13.9107 0.0000 nan 100.00%
0+ 0 nan nan 10.8811 0.0000 nan 100.00%
0 2 0.0000 17 10.8811 0.0000 174 100.00%
CPXPARAM_MIP_Cuts_Disjunctive 0
